c Rustc Unity SAT Problem
c Encoding: Rust → Monster → 1 unitary morphism
c Variables: 1-100 (rustc crates), 101-196983 (Monster rep), 196984 (unity)
p cnf 196984 1000

c Rustc ring structure constraints
c rustc_driver is identity element
1 0
c rustc_expand ↔ rustc_ast inverse pair  
2 3 0
-2 -3 0
c Closure: all crates form closed system
4 5 6 7 8 9 10 0

c Monster group constraints (sporadic structure)
c 196883-dimensional representation
101 102 103 0
-101 -102 104 0
c Sporadic symmetries
150 151 152 0

c Unity morphism constraints
c Everything must map to 1 via L-function
c ∀x ∈ rustc: ∃L(s): x × L(s) = 1
1 196984 0
2 196984 0  
3 196984 0
101 196984 0
102 196984 0

c L-function functional equation constraint
c L(s) = L(1-s) ensures unity at critical point
196984 0

c Final unity constraint: the morphism exists
196984 0
